keccak_milp_n_0_l_4.sol
# Objective value = 0
A_0_0_0 0
A_0_0_1 0
A_0_0_2 0
A_0_0_3 0
A_0_0_4 0
A_0_0_5 0
A_0_0_6 0
A_0_0_7 0
A_0_0_8 0
A_0_0_9 0
A_0_0_10 0
A_0_0_11 0
A_0_0_12 0
A_0_0_13 0
A_0_0_14 0
A_0_0_15 0
A_0_1_0 0
A_0_1_1 0
A_0_1_2 0
A_0_1_3 0
A_0_1_4 0
A_0_1_5 0
A_0_1_6 0
A_0_1_7 0
A_0_1_8 0
A_0_1_9 0
A_0_1_10 0
A_0_1_11 0
A_0_1_12 0
A_0_1_13 0
A_0_1_14 0
A_0_1_15 0
A_0_2_0 0
A_0_2_1 0
A_0_2_2 0
A_0_2_3 0
A_0_2_4 0
A_0_2_5 0
A_0_2_6 0
A_0_2_7 0
A_0_2_8 0
A_0_2_9 0
A_0_2_10 0
A_0_2_11 0
A_0_2_12 0
A_0_2_13 0
A_0_2_14 0
A_0_2_15 0
A_0_3_0 0
A_0_3_1 0
A_0_3_2 0
A_0_3_3 0
A_0_3_4 0
A_0_3_5 0
A_0_3_6 0
A_0_3_7 0
A_0_3_8 0
A_0_3_9 0
A_0_3_10 0
A_0_3_11 0
A_0_3_12 0
A_0_3_13 0
A_0_3_14 0
A_0_3_15 0
A_0_4_0 0
A_0_4_1 0
A_0_4_2 0
A_0_4_3 0
A_0_4_4 0
A_0_4_5 0
A_0_4_6 0
A_0_4_7 0
A_0_4_8 0
A_0_4_9 0
A_0_4_10 0
A_0_4_11 0
A_0_4_12 0
A_0_4_13 0
A_0_4_14 0
A_0_4_15 0
x_0_0_0_0 0
x_0_0_1_0 0
x_0_0_2_0 0
x_0_0_3_0 0
x_0_0_4_0 0
p_0_0_0 0
2d_0_0_0 0
x_0_0_0_1 0
x_0_0_1_1 0
x_0_0_2_1 0
x_0_0_3_1 0
x_0_0_4_1 0
p_0_0_1 0
2d_0_0_1 0
x_0_0_0_2 0
x_0_0_1_2 0
x_0_0_2_2 0
x_0_0_3_2 0
x_0_0_4_2 0
p_0_0_2 0
2d_0_0_2 0
x_0_0_0_3 0
x_0_0_1_3 0
x_0_0_2_3 0
x_0_0_3_3 0
x_0_0_4_3 0
p_0_0_3 0
2d_0_0_3 0
x_0_0_0_4 0
x_0_0_1_4 0
x_0_0_2_4 0
x_0_0_3_4 0
x_0_0_4_4 0
p_0_0_4 0
2d_0_0_4 0
x_0_0_0_5 0
x_0_0_1_5 0
x_0_0_2_5 0
x_0_0_3_5 0
x_0_0_4_5 0
p_0_0_5 0
2d_0_0_5 0
x_0_0_0_6 0
x_0_0_1_6 0
x_0_0_2_6 0
x_0_0_3_6 0
x_0_0_4_6 0
p_0_0_6 0
2d_0_0_6 0
x_0_0_0_7 0
x_0_0_1_7 0
x_0_0_2_7 0
x_0_0_3_7 0
x_0_0_4_7 0
p_0_0_7 0
2d_0_0_7 0
x_0_0_0_8 0
x_0_0_1_8 0
x_0_0_2_8 0
x_0_0_3_8 0
x_0_0_4_8 0
p_0_0_8 0
2d_0_0_8 0
x_0_0_0_9 0
x_0_0_1_9 0
x_0_0_2_9 0
x_0_0_3_9 0
x_0_0_4_9 0
p_0_0_9 0
2d_0_0_9 0
x_0_0_0_10 0
x_0_0_1_10 0
x_0_0_2_10 0
x_0_0_3_10 0
x_0_0_4_10 0
p_0_0_10 0
2d_0_0_10 0
x_0_0_0_11 0
x_0_0_1_11 0
x_0_0_2_11 0
x_0_0_3_11 0
x_0_0_4_11 0
p_0_0_11 0
2d_0_0_11 0
x_0_0_0_12 0
x_0_0_1_12 0
x_0_0_2_12 0
x_0_0_3_12 0
x_0_0_4_12 0
p_0_0_12 0
2d_0_0_12 0
x_0_0_0_13 0
x_0_0_1_13 0
x_0_0_2_13 0
x_0_0_3_13 0
x_0_0_4_13 0
p_0_0_13 0
2d_0_0_13 0
x_0_0_0_14 0
x_0_0_1_14 0
x_0_0_2_14 0
x_0_0_3_14 0
x_0_0_4_14 0
p_0_0_14 0
2d_0_0_14 0
x_0_0_0_15 0
x_0_0_1_15 0
x_0_0_2_15 0
x_0_0_3_15 0
x_0_0_4_15 0
p_0_0_15 0
2d_0_0_15 0
x_0_1_0_0 0
x_0_1_1_0 0
x_0_1_2_0 0
x_0_1_3_0 0
x_0_1_4_0 0
p_0_1_0 0
2d_0_1_0 0
x_0_1_0_1 0
x_0_1_1_1 0
x_0_1_2_1 0
x_0_1_3_1 0
x_0_1_4_1 0
p_0_1_1 0
2d_0_1_1 0
x_0_1_0_2 0
x_0_1_1_2 0
x_0_1_2_2 0
x_0_1_3_2 0
x_0_1_4_2 0
p_0_1_2 0
2d_0_1_2 0
x_0_1_0_3 0
x_0_1_1_3 0
x_0_1_2_3 0
x_0_1_3_3 0
x_0_1_4_3 0
p_0_1_3 0
2d_0_1_3 0
x_0_1_0_4 0
x_0_1_1_4 0
x_0_1_2_4 0
x_0_1_3_4 0
x_0_1_4_4 0
p_0_1_4 0
2d_0_1_4 0
x_0_1_0_5 0
x_0_1_1_5 0
x_0_1_2_5 0
x_0_1_3_5 0
x_0_1_4_5 0
p_0_1_5 0
2d_0_1_5 0
x_0_1_0_6 0
x_0_1_1_6 0
x_0_1_2_6 0
x_0_1_3_6 0
x_0_1_4_6 0
p_0_1_6 0
2d_0_1_6 0
x_0_1_0_7 0
x_0_1_1_7 0
x_0_1_2_7 0
x_0_1_3_7 0
x_0_1_4_7 0
p_0_1_7 0
2d_0_1_7 0
x_0_1_0_8 0
x_0_1_1_8 0
x_0_1_2_8 0
x_0_1_3_8 0
x_0_1_4_8 0
p_0_1_8 0
2d_0_1_8 0
x_0_1_0_9 0
x_0_1_1_9 0
x_0_1_2_9 0
x_0_1_3_9 0
x_0_1_4_9 0
p_0_1_9 0
2d_0_1_9 0
x_0_1_0_10 0
x_0_1_1_10 0
x_0_1_2_10 0
x_0_1_3_10 0
x_0_1_4_10 0
p_0_1_10 0
2d_0_1_10 0
x_0_1_0_11 0
x_0_1_1_11 0
x_0_1_2_11 0
x_0_1_3_11 0
x_0_1_4_11 0
p_0_1_11 0
2d_0_1_11 0
x_0_1_0_12 0
x_0_1_1_12 0
x_0_1_2_12 0
x_0_1_3_12 0
x_0_1_4_12 0
p_0_1_12 0
2d_0_1_12 0
x_0_1_0_13 0
x_0_1_1_13 0
x_0_1_2_13 0
x_0_1_3_13 0
x_0_1_4_13 0
p_0_1_13 0
2d_0_1_13 0
x_0_1_0_14 0
x_0_1_1_14 0
x_0_1_2_14 0
x_0_1_3_14 0
x_0_1_4_14 0
p_0_1_14 0
2d_0_1_14 0
x_0_1_0_15 0
x_0_1_1_15 0
x_0_1_2_15 0
x_0_1_3_15 0
x_0_1_4_15 0
p_0_1_15 0
2d_0_1_15 0
x_0_2_0_0 0
x_0_2_1_0 0
x_0_2_2_0 0
x_0_2_3_0 0
x_0_2_4_0 0
p_0_2_0 0
2d_0_2_0 0
x_0_2_0_1 0
x_0_2_1_1 0
x_0_2_2_1 0
x_0_2_3_1 0
x_0_2_4_1 0
p_0_2_1 0
2d_0_2_1 0
x_0_2_0_2 0
x_0_2_1_2 0
x_0_2_2_2 0
x_0_2_3_2 0
x_0_2_4_2 0
p_0_2_2 0
2d_0_2_2 0
x_0_2_0_3 0
x_0_2_1_3 0
x_0_2_2_3 0
x_0_2_3_3 0
x_0_2_4_3 0
p_0_2_3 0
2d_0_2_3 0
x_0_2_0_4 0
x_0_2_1_4 0
x_0_2_2_4 0
x_0_2_3_4 0
x_0_2_4_4 0
p_0_2_4 0
2d_0_2_4 0
x_0_2_0_5 0
x_0_2_1_5 0
x_0_2_2_5 0
x_0_2_3_5 0
x_0_2_4_5 0
p_0_2_5 0
2d_0_2_5 0
x_0_2_0_6 0
x_0_2_1_6 0
x_0_2_2_6 0
x_0_2_3_6 0
x_0_2_4_6 0
p_0_2_6 0
2d_0_2_6 0
x_0_2_0_7 0
x_0_2_1_7 0
x_0_2_2_7 0
x_0_2_3_7 0
x_0_2_4_7 0
p_0_2_7 0
2d_0_2_7 0
x_0_2_0_8 0
x_0_2_1_8 0
x_0_2_2_8 0
x_0_2_3_8 0
x_0_2_4_8 0
p_0_2_8 0
2d_0_2_8 0
x_0_2_0_9 0
x_0_2_1_9 0
x_0_2_2_9 0
x_0_2_3_9 0
x_0_2_4_9 0
p_0_2_9 0
2d_0_2_9 0
x_0_2_0_10 0
x_0_2_1_10 0
x_0_2_2_10 0
x_0_2_3_10 0
x_0_2_4_10 0
p_0_2_10 0
2d_0_2_10 0
x_0_2_0_11 0
x_0_2_1_11 0
x_0_2_2_11 0
x_0_2_3_11 0
x_0_2_4_11 0
p_0_2_11 0
2d_0_2_11 0
x_0_2_0_12 0
x_0_2_1_12 0
x_0_2_2_12 0
x_0_2_3_12 0
x_0_2_4_12 0
p_0_2_12 0
2d_0_2_12 0
x_0_2_0_13 0
x_0_2_1_13 0
x_0_2_2_13 0
x_0_2_3_13 0
x_0_2_4_13 0
p_0_2_13 0
2d_0_2_13 0
x_0_2_0_14 0
x_0_2_1_14 0
x_0_2_2_14 0
x_0_2_3_14 0
x_0_2_4_14 0
p_0_2_14 0
2d_0_2_14 0
x_0_2_0_15 0
x_0_2_1_15 0
x_0_2_2_15 0
x_0_2_3_15 0
x_0_2_4_15 0
p_0_2_15 0
2d_0_2_15 0
x_0_3_0_0 0
x_0_3_1_0 0
x_0_3_2_0 0
x_0_3_3_0 0
x_0_3_4_0 0
p_0_3_0 0
2d_0_3_0 0
x_0_3_0_1 0
x_0_3_1_1 0
x_0_3_2_1 0
x_0_3_3_1 0
x_0_3_4_1 0
p_0_3_1 0
2d_0_3_1 0
x_0_3_0_2 0
x_0_3_1_2 0
x_0_3_2_2 0
x_0_3_3_2 0
x_0_3_4_2 0
p_0_3_2 0
2d_0_3_2 0
x_0_3_0_3 0
x_0_3_1_3 0
x_0_3_2_3 0
x_0_3_3_3 0
x_0_3_4_3 0
p_0_3_3 0
2d_0_3_3 0
x_0_3_0_4 0
x_0_3_1_4 0
x_0_3_2_4 0
x_0_3_3_4 0
x_0_3_4_4 0
p_0_3_4 0
2d_0_3_4 0
x_0_3_0_5 0
x_0_3_1_5 0
x_0_3_2_5 0
x_0_3_3_5 0
x_0_3_4_5 0
p_0_3_5 0
2d_0_3_5 0
x_0_3_0_6 0
x_0_3_1_6 0
x_0_3_2_6 0
x_0_3_3_6 0
x_0_3_4_6 0
p_0_3_6 0
2d_0_3_6 0
x_0_3_0_7 0
x_0_3_1_7 0
x_0_3_2_7 0
x_0_3_3_7 0
x_0_3_4_7 0
p_0_3_7 0
2d_0_3_7 0
x_0_3_0_8 0
x_0_3_1_8 0
x_0_3_2_8 0
x_0_3_3_8 0
x_0_3_4_8 0
p_0_3_8 0
2d_0_3_8 0
x_0_3_0_9 0
x_0_3_1_9 0
x_0_3_2_9 0
x_0_3_3_9 0
x_0_3_4_9 0
p_0_3_9 0
2d_0_3_9 0
x_0_3_0_10 0
x_0_3_1_10 0
x_0_3_2_10 0
x_0_3_3_10 0
x_0_3_4_10 0
p_0_3_10 0
2d_0_3_10 0
x_0_3_0_11 0
x_0_3_1_11 0
x_0_3_2_11 0
x_0_3_3_11 0
x_0_3_4_11 0
p_0_3_11 0
2d_0_3_11 0
x_0_3_0_12 0
x_0_3_1_12 0
x_0_3_2_12 0
x_0_3_3_12 0
x_0_3_4_12 0
p_0_3_12 0
2d_0_3_12 0
x_0_3_0_13 0
x_0_3_1_13 0
x_0_3_2_13 0
x_0_3_3_13 0
x_0_3_4_13 0
p_0_3_13 0
2d_0_3_13 0
x_0_3_0_14 0
x_0_3_1_14 0
x_0_3_2_14 0
x_0_3_3_14 0
x_0_3_4_14 0
p_0_3_14 0
2d_0_3_14 0
x_0_3_0_15 0
x_0_3_1_15 0
x_0_3_2_15 0
x_0_3_3_15 0
x_0_3_4_15 0
p_0_3_15 0
2d_0_3_15 0
x_0_4_0_0 0
x_0_4_1_0 0
x_0_4_2_0 0
x_0_4_3_0 0
x_0_4_4_0 0
p_0_4_0 0
2d_0_4_0 0
x_0_4_0_1 0
x_0_4_1_1 0
x_0_4_2_1 0
x_0_4_3_1 0
x_0_4_4_1 0
p_0_4_1 0
2d_0_4_1 0
x_0_4_0_2 0
x_0_4_1_2 0
x_0_4_2_2 0
x_0_4_3_2 0
x_0_4_4_2 0
p_0_4_2 0
2d_0_4_2 0
x_0_4_0_3 0
x_0_4_1_3 0
x_0_4_2_3 0
x_0_4_3_3 0
x_0_4_4_3 0
p_0_4_3 0
2d_0_4_3 0
x_0_4_0_4 0
x_0_4_1_4 0
x_0_4_2_4 0
x_0_4_3_4 0
x_0_4_4_4 0
p_0_4_4 0
2d_0_4_4 0
x_0_4_0_5 0
x_0_4_1_5 0
x_0_4_2_5 0
x_0_4_3_5 0
x_0_4_4_5 0
p_0_4_5 0
2d_0_4_5 0
x_0_4_0_6 0
x_0_4_1_6 1
x_0_4_2_6 0
x_0_4_3_6 0
x_0_4_4_6 0
p_0_4_6 0
2d_0_4_6 1
x_0_4_0_7 0
x_0_4_1_7 0
x_0_4_2_7 0
x_0_4_3_7 0
x_0_4_4_7 0
p_0_4_7 0
2d_0_4_7 0
x_0_4_0_8 0
x_0_4_1_8 0
x_0_4_2_8 0
x_0_4_3_8 0
x_0_4_4_8 0
p_0_4_8 0
2d_0_4_8 0
x_0_4_0_9 0
x_0_4_1_9 0
x_0_4_2_9 0
x_0_4_3_9 0
x_0_4_4_9 0
p_0_4_9 0
2d_0_4_9 0
x_0_4_0_10 0
x_0_4_1_10 0
x_0_4_2_10 0
x_0_4_3_10 0
x_0_4_4_10 0
p_0_4_10 0
2d_0_4_10 0
x_0_4_0_11 0
x_0_4_1_11 0
x_0_4_2_11 0
x_0_4_3_11 0
x_0_4_4_11 0
p_0_4_11 0
2d_0_4_11 0
x_0_4_0_12 0
x_0_4_1_12 0
x_0_4_2_12 0
x_0_4_3_12 0
x_0_4_4_12 0
p_0_4_12 0
2d_0_4_12 0
x_0_4_0_13 0
x_0_4_1_13 0
x_0_4_2_13 0
x_0_4_3_13 0
x_0_4_4_13 0
p_0_4_13 0
2d_0_4_13 0
x_0_4_0_14 0
x_0_4_1_14 0
x_0_4_2_14 0
x_0_4_3_14 0
x_0_4_4_14 0
p_0_4_14 0
2d_0_4_14 0
x_0_4_0_15 0
x_0_4_1_15 0
x_0_4_2_15 0
x_0_4_3_15 0
x_0_4_4_15 0
p_0_4_15 0
2d_0_4_15 0
d_0_0_0 2000000000
d_0_0_1 2000000000
d_0_0_2 2000000000
d_0_0_3 2000000000
d_0_0_4 2000000000
d_0_0_5 2000000000
d_0_0_6 2000000000
d_0_0_7 2000000000
d_0_0_8 2000000000
d_0_0_9 2000000000
d_0_0_10 2000000000
d_0_0_11 2000000000
d_0_0_12 2000000000
d_0_0_13 2000000000
d_0_0_14 2000000000
d_0_0_15 2000000000
d_0_1_0 2000000000
d_0_1_1 2000000000
d_0_1_2 2000000000
d_0_1_3 2000000000
d_0_1_4 2000000000
d_0_1_5 2000000000
d_0_1_6 2000000000
d_0_1_7 2000000000
d_0_1_8 2000000000
d_0_1_9 2000000000
d_0_1_10 2000000000
d_0_1_11 2000000000
d_0_1_12 2000000000
d_0_1_13 2000000000
d_0_1_14 2000000000
d_0_1_15 2000000000
d_0_2_0 2000000000
d_0_2_1 2000000000
d_0_2_2 2000000000
d_0_2_3 2000000000
d_0_2_4 2000000000
d_0_2_5 2000000000
d_0_2_6 2000000000
d_0_2_7 2000000000
d_0_2_8 2000000000
d_0_2_9 2000000000
d_0_2_10 2000000000
d_0_2_11 2000000000
d_0_2_12 2000000000
d_0_2_13 2000000000
d_0_2_14 2000000000
d_0_2_15 2000000000
d_0_3_0 2000000000
d_0_3_1 2000000000
d_0_3_2 2000000000
d_0_3_3 2000000000
d_0_3_4 2000000000
d_0_3_5 2000000000
d_0_3_6 2000000000
d_0_3_7 2000000000
d_0_3_8 2000000000
d_0_3_9 2000000000
d_0_3_10 2000000000
d_0_3_11 2000000000
d_0_3_12 2000000000
d_0_3_13 2000000000
d_0_3_14 2000000000
d_0_3_15 2000000000
d_0_4_0 2000000000
d_0_4_1 2000000000
d_0_4_2 2000000000
d_0_4_3 2000000000
d_0_4_4 2000000000
d_0_4_5 2000000000
d_0_4_6 2000000000
d_0_4_7 2000000000
d_0_4_8 2000000000
d_0_4_9 2000000000
d_0_4_10 2000000000
d_0_4_11 2000000000
d_0_4_12 2000000000
d_0_4_13 2000000000
d_0_4_14 2000000000
d_0_4_15 2000000000
y_0_0_0_0 0
2e_0_0_0_0 0
p_1_4_0 0
e_0_0_0_0 2000000000
y_0_0_1_0 0
2e_0_0_1_0 0
e_0_0_1_0 2000000000
y_0_0_2_0 0
2e_0_0_2_0 0
e_0_0_2_0 2000000000
y_0_0_3_0 0
2e_0_0_3_0 0
e_0_0_3_0 2000000000
y_0_0_4_0 0
2e_0_0_4_0 0
e_0_0_4_0 2000000000
y_0_0_0_1 0
2e_0_0_0_1 0
p_1_5_0 0
e_0_0_0_1 2000000000
y_0_0_1_1 0
2e_0_0_1_1 0
e_0_0_1_1 2000000000
y_0_0_2_1 0
2e_0_0_2_1 0
e_0_0_2_1 2000000000
y_0_0_3_1 0
2e_0_0_3_1 0
e_0_0_3_1 2000000000
y_0_0_4_1 0
2e_0_0_4_1 0
e_0_0_4_1 2000000000
y_0_0_0_2 0
2e_0_0_0_2 0
p_1_6_0 0
e_0_0_0_2 2000000000
y_0_0_1_2 0
2e_0_0_1_2 0
e_0_0_1_2 2000000000
y_0_0_2_2 0
2e_0_0_2_2 0
e_0_0_2_2 2000000000
y_0_0_3_2 0
2e_0_0_3_2 0
e_0_0_3_2 2000000000
y_0_0_4_2 0
2e_0_0_4_2 0
e_0_0_4_2 2000000000
y_0_0_0_3 0
2e_0_0_0_3 0
p_1_7_0 0
e_0_0_0_3 2000000000
y_0_0_1_3 0
2e_0_0_1_3 0
e_0_0_1_3 2000000000
y_0_0_2_3 0
2e_0_0_2_3 0
e_0_0_2_3 2000000000
y_0_0_3_3 0
2e_0_0_3_3 0
e_0_0_3_3 2000000000
y_0_0_4_3 0
2e_0_0_4_3 0
e_0_0_4_3 2000000000
y_0_0_0_4 0
2e_0_0_0_4 0
p_1_8_0 0
e_0_0_0_4 2000000000
y_0_0_1_4 0
2e_0_0_1_4 0
e_0_0_1_4 2000000000
y_0_0_2_4 0
2e_0_0_2_4 0
e_0_0_2_4 2000000000
y_0_0_3_4 0
2e_0_0_3_4 0
e_0_0_3_4 2000000000
y_0_0_4_4 0
2e_0_0_4_4 0
e_0_0_4_4 2000000000
y_0_0_0_5 0
2e_0_0_0_5 0
x_0_4_5_0 0
p_1_9_0 0
e_0_0_0_5 2000000000
y_0_0_1_5 0
2e_0_0_1_5 0
e_0_0_1_5 2000000000
y_0_0_2_5 0
2e_0_0_2_5 0
e_0_0_2_5 2000000000
y_0_0_3_5 0
2e_0_0_3_5 0
e_0_0_3_5 2000000000
y_0_0_4_5 0
2e_0_0_4_5 0
e_0_0_4_5 2000000000
y_0_0_0_6 0
2e_0_0_0_6 0
x_0_4_6_0 0
p_1_10_0 0
e_0_0_0_6 2000000000
y_0_0_1_6 0
2e_0_0_1_6 0
e_0_0_1_6 2000000000
y_0_0_2_6 0
2e_0_0_2_6 0
e_0_0_2_6 2000000000
y_0_0_3_6 0
2e_0_0_3_6 0
e_0_0_3_6 2000000000
y_0_0_4_6 0
2e_0_0_4_6 0
e_0_0_4_6 2000000000
y_0_0_0_7 0
2e_0_0_0_7 0
x_0_4_7_0 0
p_1_11_0 0
e_0_0_0_7 2000000000
y_0_0_1_7 0
2e_0_0_1_7 0
e_0_0_1_7 2000000000
y_0_0_2_7 0
2e_0_0_2_7 0
e_0_0_2_7 2000000000
y_0_0_3_7 0
2e_0_0_3_7 0
e_0_0_3_7 2000000000
y_0_0_4_7 0
2e_0_0_4_7 0
e_0_0_4_7 2000000000
y_0_0_0_8 0
2e_0_0_0_8 0
x_0_4_8_0 0
p_1_12_0 0
e_0_0_0_8 2000000000
y_0_0_1_8 0
2e_0_0_1_8 0
e_0_0_1_8 2000000000
y_0_0_2_8 0
2e_0_0_2_8 0
e_0_0_2_8 2000000000
y_0_0_3_8 0
2e_0_0_3_8 0
e_0_0_3_8 2000000000
y_0_0_4_8 0
2e_0_0_4_8 0
e_0_0_4_8 2000000000
y_0_0_0_9 0
2e_0_0_0_9 0
x_0_4_9_0 0
p_1_13_0 0
e_0_0_0_9 2000000000
y_0_0_1_9 0
2e_0_0_1_9 0
e_0_0_1_9 2000000000
y_0_0_2_9 0
2e_0_0_2_9 0
e_0_0_2_9 2000000000
y_0_0_3_9 0
2e_0_0_3_9 0
e_0_0_3_9 2000000000
y_0_0_4_9 0
2e_0_0_4_9 0
e_0_0_4_9 2000000000
y_0_0_0_10 0
2e_0_0_0_10 0
x_0_4_10_0 0
p_1_14_0 0
e_0_0_0_10 2000000000
y_0_0_1_10 0
2e_0_0_1_10 0
e_0_0_1_10 2000000000
y_0_0_2_10 0
2e_0_0_2_10 0
e_0_0_2_10 2000000000
y_0_0_3_10 0
2e_0_0_3_10 0
e_0_0_3_10 2000000000
y_0_0_4_10 0
2e_0_0_4_10 0
e_0_0_4_10 2000000000
y_0_0_0_11 0
2e_0_0_0_11 0
x_0_4_11_0 0
p_1_15_0 0
e_0_0_0_11 2000000000
y_0_0_1_11 0
2e_0_0_1_11 0
e_0_0_1_11 2000000000
y_0_0_2_11 0
2e_0_0_2_11 0
e_0_0_2_11 2000000000
y_0_0_3_11 0
2e_0_0_3_11 0
e_0_0_3_11 2000000000
y_0_0_4_11 0
2e_0_0_4_11 0
e_0_0_4_11 2000000000
y_0_0_0_12 0
2e_0_0_0_12 0
x_0_4_12_0 0
p_1_0_0 0
e_0_0_0_12 2000000000
y_0_0_1_12 0
2e_0_0_1_12 0
e_0_0_1_12 2000000000
y_0_0_2_12 0
2e_0_0_2_12 0
e_0_0_2_12 2000000000
y_0_0_3_12 0
2e_0_0_3_12 0
e_0_0_3_12 2000000000
y_0_0_4_12 0
2e_0_0_4_12 0
e_0_0_4_12 2000000000
y_0_0_0_13 0
2e_0_0_0_13 0
x_0_4_13_0 0
p_1_1_0 0
e_0_0_0_13 2000000000
y_0_0_1_13 0
2e_0_0_1_13 0
e_0_0_1_13 2000000000
y_0_0_2_13 0
2e_0_0_2_13 0
e_0_0_2_13 2000000000
y_0_0_3_13 0
2e_0_0_3_13 0
e_0_0_3_13 2000000000
y_0_0_4_13 0
2e_0_0_4_13 0
e_0_0_4_13 2000000000
y_0_0_0_14 0
2e_0_0_0_14 0
x_0_4_14_0 0
p_1_2_0 0
e_0_0_0_14 2000000000
y_0_0_1_14 0
2e_0_0_1_14 0
e_0_0_1_14 2000000000
y_0_0_2_14 0
2e_0_0_2_14 0
e_0_0_2_14 2000000000
y_0_0_3_14 0
2e_0_0_3_14 0
e_0_0_3_14 2000000000
y_0_0_4_14 0
2e_0_0_4_14 0
e_0_0_4_14 2000000000
y_0_0_0_15 0
2e_0_0_0_15 0
x_0_4_15_0 0
p_1_3_0 0
e_0_0_0_15 2000000000
y_0_0_1_15 0
2e_0_0_1_15 0
e_0_0_1_15 2000000000
y_0_0_2_15 0
2e_0_0_2_15 0
e_0_0_2_15 2000000000
y_0_0_3_15 0
2e_0_0_3_15 0
e_0_0_3_15 2000000000
y_0_0_4_15 0
2e_0_0_4_15 0
e_0_0_4_15 2000000000
y_0_1_0_0 0
2e_0_1_0_0 0
p_2_4_0 0
e_0_1_0_0 2000000000
y_0_1_1_0 0
2e_0_1_1_0 0
e_0_1_1_0 2000000000
y_0_1_2_0 0
2e_0_1_2_0 0
e_0_1_2_0 2000000000
y_0_1_3_0 0
2e_0_1_3_0 0
e_0_1_3_0 2000000000
y_0_1_4_0 0
2e_0_1_4_0 0
e_0_1_4_0 2000000000
y_0_1_0_1 0
2e_0_1_0_1 0
p_2_5_0 0
p_1_0_1 0
e_0_1_0_1 2000000000
y_0_1_1_1 0
2e_0_1_1_1 0
p_1_1_1 0
e_0_1_1_1 2000000000
y_0_1_2_1 0
2e_0_1_2_1 0
p_1_2_1 0
e_0_1_2_1 2000000000
y_0_1_3_1 0
2e_0_1_3_1 0
p_1_3_1 0
e_0_1_3_1 2000000000
y_0_1_4_1 0
2e_0_1_4_1 0
p_1_4_1 0
e_0_1_4_1 2000000000
y_0_1_0_2 0
2e_0_1_0_2 0
p_2_6_0 0
p_1_0_2 0
e_0_1_0_2 2000000000
y_0_1_1_2 0
2e_0_1_1_2 0
p_1_1_2 0
e_0_1_1_2 2000000000
y_0_1_2_2 0
2e_0_1_2_2 0
p_1_2_2 0
e_0_1_2_2 2000000000
y_0_1_3_2 0
2e_0_1_3_2 0
p_1_3_2 0
e_0_1_3_2 2000000000
y_0_1_4_2 0
2e_0_1_4_2 0
p_1_4_2 0
e_0_1_4_2 2000000000
y_0_1_0_3 0
2e_0_1_0_3 0
p_2_7_0 0
p_1_0_3 0
e_0_1_0_3 2000000000
y_0_1_1_3 0
2e_0_1_1_3 0
p_1_1_3 0
e_0_1_1_3 2000000000
y_0_1_2_3 0
2e_0_1_2_3 0
p_1_2_3 0
e_0_1_2_3 2000000000
y_0_1_3_3 0
2e_0_1_3_3 0
p_1_3_3 0
e_0_1_3_3 2000000000
y_0_1_4_3 0
2e_0_1_4_3 0
p_1_4_3 0
e_0_1_4_3 2000000000
y_0_1_0_4 0
2e_0_1_0_4 0
p_2_8_0 0
p_1_0_4 0
e_0_1_0_4 2000000000
y_0_1_1_4 0
2e_0_1_1_4 0
p_1_1_4 0
e_0_1_1_4 2000000000
y_0_1_2_4 0
2e_0_1_2_4 0
p_1_2_4 0
e_0_1_2_4 2000000000
y_0_1_3_4 0
2e_0_1_3_4 0
p_1_3_4 0
e_0_1_3_4 2000000000
y_0_1_4_4 0
2e_0_1_4_4 0
p_1_4_4 0
e_0_1_4_4 2000000000
y_0_1_0_5 0
2e_0_1_0_5 0
x_0_0_5_0 0
p_2_9_0 0
p_1_0_5 0
e_0_1_0_5 2000000000
y_0_1_1_5 0
2e_0_1_1_5 0
p_1_1_5 0
e_0_1_1_5 2000000000
y_0_1_2_5 0
2e_0_1_2_5 0
p_1_2_5 0
e_0_1_2_5 2000000000
y_0_1_3_5 0
2e_0_1_3_5 0
p_1_3_5 0
e_0_1_3_5 2000000000
y_0_1_4_5 0
2e_0_1_4_5 0
p_1_4_5 0
e_0_1_4_5 2000000000
y_0_1_0_6 0
2e_0_1_0_6 0
x_0_0_6_0 0
p_2_10_0 0
p_1_0_6 0
e_0_1_0_6 2000000000
y_0_1_1_6 0
2e_0_1_1_6 0
p_1_1_6 0
e_0_1_1_6 2000000000
y_0_1_2_6 0
2e_0_1_2_6 0
p_1_2_6 0
e_0_1_2_6 2000000000
y_0_1_3_6 0
2e_0_1_3_6 0
p_1_3_6 0
e_0_1_3_6 2000000000
y_0_1_4_6 0
2e_0_1_4_6 0
p_1_4_6 0
e_0_1_4_6 2000000000
y_0_1_0_7 0
2e_0_1_0_7 0
x_0_0_7_0 0
p_2_11_0 0
p_1_0_7 0
e_0_1_0_7 2000000000
y_0_1_1_7 0
2e_0_1_1_7 0
p_1_1_7 0
e_0_1_1_7 2000000000
y_0_1_2_7 0
2e_0_1_2_7 0
p_1_2_7 0
e_0_1_2_7 2000000000
y_0_1_3_7 0
2e_0_1_3_7 0
p_1_3_7 0
e_0_1_3_7 2000000000
y_0_1_4_7 0
2e_0_1_4_7 0
p_1_4_7 0
e_0_1_4_7 2000000000
y_0_1_0_8 0
2e_0_1_0_8 0
x_0_0_8_0 0
p_2_12_0 0
p_1_0_8 0
e_0_1_0_8 2000000000
y_0_1_1_8 0
2e_0_1_1_8 0
p_1_1_8 0
e_0_1_1_8 2000000000
y_0_1_2_8 0
2e_0_1_2_8 0
p_1_2_8 0
e_0_1_2_8 2000000000
y_0_1_3_8 0
2e_0_1_3_8 0
p_1_3_8 0
e_0_1_3_8 2000000000
y_0_1_4_8 0
2e_0_1_4_8 0
p_1_4_8 0
e_0_1_4_8 2000000000
y_0_1_0_9 0
2e_0_1_0_9 0
x_0_0_9_0 0
p_2_13_0 0
p_1_0_9 0
e_0_1_0_9 2000000000
y_0_1_1_9 0
2e_0_1_1_9 0
p_1_1_9 0
e_0_1_1_9 2000000000
y_0_1_2_9 0
2e_0_1_2_9 0
p_1_2_9 0
e_0_1_2_9 2000000000
y_0_1_3_9 0
2e_0_1_3_9 0
p_1_3_9 0
e_0_1_3_9 2000000000
y_0_1_4_9 0
2e_0_1_4_9 0
p_1_4_9 0
e_0_1_4_9 2000000000
y_0_1_0_10 0
2e_0_1_0_10 0
x_0_0_10_0 0
p_2_14_0 0
p_1_0_10 0
e_0_1_0_10 2000000000
y_0_1_1_10 0
2e_0_1_1_10 0
p_1_1_10 0
e_0_1_1_10 2000000000
y_0_1_2_10 0
2e_0_1_2_10 0
p_1_2_10 0
e_0_1_2_10 2000000000
y_0_1_3_10 0
2e_0_1_3_10 0
p_1_3_10 0
e_0_1_3_10 2000000000
y_0_1_4_10 0
2e_0_1_4_10 0
p_1_4_10 0
e_0_1_4_10 2000000000
y_0_1_0_11 0
2e_0_1_0_11 0
x_0_0_11_0 0
p_2_15_0 0
p_1_0_11 0
e_0_1_0_11 2000000000
y_0_1_1_11 0
2e_0_1_1_11 0
p_1_1_11 0
e_0_1_1_11 2000000000
y_0_1_2_11 0
2e_0_1_2_11 0
p_1_2_11 0
e_0_1_2_11 2000000000
y_0_1_3_11 0
2e_0_1_3_11 0
p_1_3_11 0
e_0_1_3_11 2000000000
y_0_1_4_11 0
2e_0_1_4_11 0
p_1_4_11 0
e_0_1_4_11 2000000000
y_0_1_0_12 0
2e_0_1_0_12 0
x_0_0_12_0 0
p_2_0_0 0
p_1_0_12 0
e_0_1_0_12 2000000000
y_0_1_1_12 0
2e_0_1_1_12 0
p_1_1_12 0
e_0_1_1_12 2000000000
y_0_1_2_12 0
2e_0_1_2_12 0
p_1_2_12 0
e_0_1_2_12 2000000000
y_0_1_3_12 0
2e_0_1_3_12 0
p_1_3_12 0
e_0_1_3_12 2000000000
y_0_1_4_12 0
2e_0_1_4_12 0
p_1_4_12 0
e_0_1_4_12 2000000000
y_0_1_0_13 0
2e_0_1_0_13 0
x_0_0_13_0 0
p_2_1_0 0
p_1_0_13 0
e_0_1_0_13 2000000000
y_0_1_1_13 0
2e_0_1_1_13 0
p_1_1_13 0
e_0_1_1_13 2000000000
y_0_1_2_13 0
2e_0_1_2_13 0
p_1_2_13 0
e_0_1_2_13 2000000000
y_0_1_3_13 0
2e_0_1_3_13 0
p_1_3_13 0
e_0_1_3_13 2000000000
y_0_1_4_13 0
2e_0_1_4_13 0
p_1_4_13 0
e_0_1_4_13 2000000000
y_0_1_0_14 0
2e_0_1_0_14 0
x_0_0_14_0 0
p_2_2_0 0
p_1_0_14 0
e_0_1_0_14 2000000000
y_0_1_1_14 0
2e_0_1_1_14 0
p_1_1_14 0
e_0_1_1_14 2000000000
y_0_1_2_14 0
2e_0_1_2_14 0
p_1_2_14 0
e_0_1_2_14 2000000000
y_0_1_3_14 0
2e_0_1_3_14 0
p_1_3_14 0
e_0_1_3_14 2000000000
y_0_1_4_14 0
2e_0_1_4_14 0
p_1_4_14 0
e_0_1_4_14 2000000000
y_0_1_0_15 0
2e_0_1_0_15 0
x_0_0_15_0 0
p_2_3_0 0
p_1_0_15 0
e_0_1_0_15 2000000000
y_0_1_1_15 0
2e_0_1_1_15 0
p_1_1_15 0
e_0_1_1_15 2000000000
y_0_1_2_15 0
2e_0_1_2_15 0
p_1_2_15 0
e_0_1_2_15 2000000000
y_0_1_3_15 0
2e_0_1_3_15 0
p_1_3_15 0
e_0_1_3_15 2000000000
y_0_1_4_15 0
2e_0_1_4_15 0
p_1_4_15 0
e_0_1_4_15 2000000000
y_0_2_0_0 0
2e_0_2_0_0 0
p_3_4_0 0
e_0_2_0_0 2000000000
y_0_2_1_0 0
2e_0_2_1_0 0
e_0_2_1_0 2000000000
y_0_2_2_0 0
2e_0_2_2_0 0
e_0_2_2_0 2000000000
y_0_2_3_0 0
2e_0_2_3_0 0
e_0_2_3_0 2000000000
y_0_2_4_0 0
2e_0_2_4_0 0
e_0_2_4_0 2000000000
y_0_2_0_1 0
2e_0_2_0_1 0
p_3_5_0 0
p_2_0_1 0
e_0_2_0_1 2000000000
y_0_2_1_1 0
2e_0_2_1_1 0
p_2_1_1 0
e_0_2_1_1 2000000000
y_0_2_2_1 0
2e_0_2_2_1 0
p_2_2_1 0
e_0_2_2_1 2000000000
y_0_2_3_1 0
2e_0_2_3_1 0
p_2_3_1 0
e_0_2_3_1 2000000000
y_0_2_4_1 0
2e_0_2_4_1 0
p_2_4_1 0
e_0_2_4_1 2000000000
y_0_2_0_2 0
2e_0_2_0_2 0
p_3_6_0 0
p_2_0_2 0
e_0_2_0_2 2000000000
y_0_2_1_2 0
2e_0_2_1_2 0
p_2_1_2 0
e_0_2_1_2 2000000000
y_0_2_2_2 0
2e_0_2_2_2 0
p_2_2_2 0
e_0_2_2_2 2000000000
y_0_2_3_2 0
2e_0_2_3_2 0
p_2_3_2 0
e_0_2_3_2 2000000000
y_0_2_4_2 0
2e_0_2_4_2 0
p_2_4_2 0
e_0_2_4_2 2000000000
y_0_2_0_3 0
2e_0_2_0_3 0
p_3_7_0 0
p_2_0_3 0
e_0_2_0_3 2000000000
y_0_2_1_3 0
2e_0_2_1_3 0
p_2_1_3 0
e_0_2_1_3 2000000000
y_0_2_2_3 0
2e_0_2_2_3 0
p_2_2_3 0
e_0_2_2_3 2000000000
y_0_2_3_3 0
2e_0_2_3_3 0
p_2_3_3 0
e_0_2_3_3 2000000000
y_0_2_4_3 0
2e_0_2_4_3 0
p_2_4_3 0
e_0_2_4_3 2000000000
y_0_2_0_4 0
2e_0_2_0_4 0
p_3_8_0 0
p_2_0_4 0
e_0_2_0_4 2000000000
y_0_2_1_4 0
2e_0_2_1_4 0
p_2_1_4 0
e_0_2_1_4 2000000000
y_0_2_2_4 0
2e_0_2_2_4 0
p_2_2_4 0
e_0_2_2_4 2000000000
y_0_2_3_4 0
2e_0_2_3_4 0
p_2_3_4 0
e_0_2_3_4 2000000000
y_0_2_4_4 0
2e_0_2_4_4 0
p_2_4_4 0
e_0_2_4_4 2000000000
y_0_2_0_5 0
2e_0_2_0_5 0
x_0_1_5_0 0
p_3_9_0 0
p_2_0_5 0
e_0_2_0_5 2000000000
y_0_2_1_5 0
2e_0_2_1_5 0
p_2_1_5 0
e_0_2_1_5 2000000000
y_0_2_2_5 0
2e_0_2_2_5 0
p_2_2_5 0
e_0_2_2_5 2000000000
y_0_2_3_5 0
2e_0_2_3_5 0
p_2_3_5 0
e_0_2_3_5 2000000000
y_0_2_4_5 0
2e_0_2_4_5 0
p_2_4_5 0
e_0_2_4_5 2000000000
y_0_2_0_6 0
2e_0_2_0_6 0
x_0_1_6_0 0
p_3_10_0 0
p_2_0_6 0
e_0_2_0_6 2000000000
y_0_2_1_6 0
2e_0_2_1_6 0
p_2_1_6 0
e_0_2_1_6 2000000000
y_0_2_2_6 0
2e_0_2_2_6 0
p_2_2_6 0
e_0_2_2_6 2000000000
y_0_2_3_6 0
2e_0_2_3_6 0
p_2_3_6 0
e_0_2_3_6 2000000000
y_0_2_4_6 0
2e_0_2_4_6 0
p_2_4_6 0
e_0_2_4_6 2000000000
y_0_2_0_7 0
2e_0_2_0_7 0
x_0_1_7_0 0
p_3_11_0 0
p_2_0_7 0
e_0_2_0_7 2000000000
y_0_2_1_7 0
2e_0_2_1_7 0
p_2_1_7 0
e_0_2_1_7 2000000000
y_0_2_2_7 0
2e_0_2_2_7 0
p_2_2_7 0
e_0_2_2_7 2000000000
y_0_2_3_7 0
2e_0_2_3_7 0
p_2_3_7 0
e_0_2_3_7 2000000000
y_0_2_4_7 0
2e_0_2_4_7 0
p_2_4_7 0
e_0_2_4_7 2000000000
y_0_2_0_8 0
2e_0_2_0_8 0
x_0_1_8_0 0
p_3_12_0 0
p_2_0_8 0
e_0_2_0_8 2000000000
y_0_2_1_8 0
2e_0_2_1_8 0
p_2_1_8 0
e_0_2_1_8 2000000000
y_0_2_2_8 0
2e_0_2_2_8 0
p_2_2_8 0
e_0_2_2_8 2000000000
y_0_2_3_8 0
2e_0_2_3_8 0
p_2_3_8 0
e_0_2_3_8 2000000000
y_0_2_4_8 0
2e_0_2_4_8 0
p_2_4_8 0
e_0_2_4_8 2000000000
y_0_2_0_9 0
2e_0_2_0_9 0
x_0_1_9_0 0
p_3_13_0 0
p_2_0_9 0
e_0_2_0_9 2000000000
y_0_2_1_9 0
2e_0_2_1_9 0
p_2_1_9 0
e_0_2_1_9 2000000000
y_0_2_2_9 0
2e_0_2_2_9 0
p_2_2_9 0
e_0_2_2_9 2000000000
y_0_2_3_9 0
2e_0_2_3_9 0
p_2_3_9 0
e_0_2_3_9 2000000000
y_0_2_4_9 0
2e_0_2_4_9 0
p_2_4_9 0
e_0_2_4_9 2000000000
y_0_2_0_10 0
2e_0_2_0_10 0
x_0_1_10_0 0
p_3_14_0 0
p_2_0_10 0
e_0_2_0_10 2000000000
y_0_2_1_10 0
2e_0_2_1_10 0
p_2_1_10 0
e_0_2_1_10 2000000000
y_0_2_2_10 0
2e_0_2_2_10 0
p_2_2_10 0
e_0_2_2_10 2000000000
y_0_2_3_10 0
2e_0_2_3_10 0
p_2_3_10 0
e_0_2_3_10 2000000000
y_0_2_4_10 0
2e_0_2_4_10 0
p_2_4_10 0
e_0_2_4_10 2000000000
y_0_2_0_11 0
2e_0_2_0_11 0
x_0_1_11_0 0
p_3_15_0 0
p_2_0_11 0
e_0_2_0_11 2000000000
y_0_2_1_11 0
2e_0_2_1_11 0
p_2_1_11 0
e_0_2_1_11 2000000000
y_0_2_2_11 0
2e_0_2_2_11 0
p_2_2_11 0
e_0_2_2_11 2000000000
y_0_2_3_11 0
2e_0_2_3_11 0
p_2_3_11 0
e_0_2_3_11 2000000000
y_0_2_4_11 0
2e_0_2_4_11 0
p_2_4_11 0
e_0_2_4_11 2000000000
y_0_2_0_12 0
2e_0_2_0_12 0
x_0_1_12_0 0
p_3_0_0 0
p_2_0_12 0
e_0_2_0_12 2000000000
y_0_2_1_12 0
2e_0_2_1_12 0
p_2_1_12 0
e_0_2_1_12 2000000000
y_0_2_2_12 0
2e_0_2_2_12 0
p_2_2_12 0
e_0_2_2_12 2000000000
y_0_2_3_12 0
2e_0_2_3_12 0
p_2_3_12 0
e_0_2_3_12 2000000000
y_0_2_4_12 0
2e_0_2_4_12 0
p_2_4_12 0
e_0_2_4_12 2000000000
y_0_2_0_13 0
2e_0_2_0_13 0
x_0_1_13_0 0
p_3_1_0 0
p_2_0_13 0
e_0_2_0_13 2000000000
y_0_2_1_13 0
2e_0_2_1_13 0
p_2_1_13 0
e_0_2_1_13 2000000000
y_0_2_2_13 0
2e_0_2_2_13 0
p_2_2_13 0
e_0_2_2_13 2000000000
y_0_2_3_13 0
2e_0_2_3_13 0
p_2_3_13 0
e_0_2_3_13 2000000000
y_0_2_4_13 0
2e_0_2_4_13 0
p_2_4_13 0
e_0_2_4_13 2000000000
y_0_2_0_14 0
2e_0_2_0_14 0
x_0_1_14_0 0
p_3_2_0 0
p_2_0_14 0
e_0_2_0_14 2000000000
y_0_2_1_14 0
2e_0_2_1_14 0
p_2_1_14 0
e_0_2_1_14 2000000000
y_0_2_2_14 0
2e_0_2_2_14 0
p_2_2_14 0
e_0_2_2_14 2000000000
y_0_2_3_14 0
2e_0_2_3_14 0
p_2_3_14 0
e_0_2_3_14 2000000000
y_0_2_4_14 0
2e_0_2_4_14 0
p_2_4_14 0
e_0_2_4_14 2000000000
y_0_2_0_15 0
2e_0_2_0_15 0
x_0_1_15_0 0
p_3_3_0 0
p_2_0_15 0
e_0_2_0_15 2000000000
y_0_2_1_15 0
2e_0_2_1_15 0
p_2_1_15 0
e_0_2_1_15 2000000000
y_0_2_2_15 0
2e_0_2_2_15 0
p_2_2_15 0
e_0_2_2_15 2000000000
y_0_2_3_15 0
2e_0_2_3_15 0
p_2_3_15 0
e_0_2_3_15 2000000000
y_0_2_4_15 0
2e_0_2_4_15 0
p_2_4_15 0
e_0_2_4_15 2000000000
y_0_3_0_0 0
2e_0_3_0_0 0
p_4_4_0 0
e_0_3_0_0 2000000000
y_0_3_1_0 0
2e_0_3_1_0 0
e_0_3_1_0 2000000000
y_0_3_2_0 0
2e_0_3_2_0 0
e_0_3_2_0 2000000000
y_0_3_3_0 0
2e_0_3_3_0 0
e_0_3_3_0 2000000000
y_0_3_4_0 0
2e_0_3_4_0 0
e_0_3_4_0 2000000000
y_0_3_0_1 0
2e_0_3_0_1 0
p_4_5_0 0
p_3_0_1 0
e_0_3_0_1 2000000000
y_0_3_1_1 0
2e_0_3_1_1 0
p_3_1_1 0
e_0_3_1_1 2000000000
y_0_3_2_1 0
2e_0_3_2_1 0
p_3_2_1 0
e_0_3_2_1 2000000000
y_0_3_3_1 0
2e_0_3_3_1 0
p_3_3_1 0
e_0_3_3_1 2000000000
y_0_3_4_1 0
2e_0_3_4_1 0
p_3_4_1 0
e_0_3_4_1 2000000000
y_0_3_0_2 0
2e_0_3_0_2 0
p_4_6_0 0
p_3_0_2 0
e_0_3_0_2 2000000000
y_0_3_1_2 0
2e_0_3_1_2 0
p_3_1_2 0
e_0_3_1_2 2000000000
y_0_3_2_2 0
2e_0_3_2_2 0
p_3_2_2 0
e_0_3_2_2 2000000000
y_0_3_3_2 0
2e_0_3_3_2 0
p_3_3_2 0
e_0_3_3_2 2000000000
y_0_3_4_2 0
2e_0_3_4_2 0
p_3_4_2 0
e_0_3_4_2 2000000000
y_0_3_0_3 0
2e_0_3_0_3 0
p_4_7_0 0
p_3_0_3 0
e_0_3_0_3 2000000000
y_0_3_1_3 0
2e_0_3_1_3 0
p_3_1_3 0
e_0_3_1_3 2000000000
y_0_3_2_3 0
2e_0_3_2_3 0
p_3_2_3 0
e_0_3_2_3 2000000000
y_0_3_3_3 0
2e_0_3_3_3 0
p_3_3_3 0
e_0_3_3_3 2000000000
y_0_3_4_3 0
2e_0_3_4_3 0
p_3_4_3 0
e_0_3_4_3 2000000000
y_0_3_0_4 0
2e_0_3_0_4 0
p_4_8_0 0
p_3_0_4 0
e_0_3_0_4 2000000000
y_0_3_1_4 0
2e_0_3_1_4 0
p_3_1_4 0
e_0_3_1_4 2000000000
y_0_3_2_4 0
2e_0_3_2_4 0
p_3_2_4 0
e_0_3_2_4 2000000000
y_0_3_3_4 0
2e_0_3_3_4 0
p_3_3_4 0
e_0_3_3_4 2000000000
y_0_3_4_4 0
2e_0_3_4_4 0
p_3_4_4 0
e_0_3_4_4 2000000000
y_0_3_0_5 0
2e_0_3_0_5 0
x_0_2_5_0 0
p_4_9_0 0
p_3_0_5 0
e_0_3_0_5 2000000000
y_0_3_1_5 0
2e_0_3_1_5 0
p_3_1_5 0
e_0_3_1_5 2000000000
y_0_3_2_5 0
2e_0_3_2_5 0
p_3_2_5 0
e_0_3_2_5 2000000000
y_0_3_3_5 0
2e_0_3_3_5 0
p_3_3_5 0
e_0_3_3_5 2000000000
y_0_3_4_5 0
2e_0_3_4_5 0
p_3_4_5 0
e_0_3_4_5 2000000000
y_0_3_0_6 0
2e_0_3_0_6 0
x_0_2_6_0 0
p_4_10_0 0
p_3_0_6 0
e_0_3_0_6 2000000000
y_0_3_1_6 0
2e_0_3_1_6 0
p_3_1_6 0
e_0_3_1_6 2000000000
y_0_3_2_6 0
2e_0_3_2_6 0
p_3_2_6 0
e_0_3_2_6 2000000000
y_0_3_3_6 0
2e_0_3_3_6 0
p_3_3_6 0
e_0_3_3_6 2000000000
y_0_3_4_6 0
2e_0_3_4_6 0
p_3_4_6 0
e_0_3_4_6 2000000000
y_0_3_0_7 0
2e_0_3_0_7 0
x_0_2_7_0 0
p_4_11_0 0
p_3_0_7 0
e_0_3_0_7 2000000000
y_0_3_1_7 0
2e_0_3_1_7 0
p_3_1_7 0
e_0_3_1_7 2000000000
y_0_3_2_7 0
2e_0_3_2_7 0
p_3_2_7 0
e_0_3_2_7 2000000000
y_0_3_3_7 0
2e_0_3_3_7 0
p_3_3_7 0
e_0_3_3_7 2000000000
y_0_3_4_7 0
2e_0_3_4_7 0
p_3_4_7 0
e_0_3_4_7 2000000000
y_0_3_0_8 0
2e_0_3_0_8 0
x_0_2_8_0 0
p_4_12_0 0
p_3_0_8 0
e_0_3_0_8 2000000000
y_0_3_1_8 0
2e_0_3_1_8 0
p_3_1_8 0
e_0_3_1_8 2000000000
y_0_3_2_8 0
2e_0_3_2_8 0
p_3_2_8 0
e_0_3_2_8 2000000000
y_0_3_3_8 0
2e_0_3_3_8 0
p_3_3_8 0
e_0_3_3_8 2000000000
y_0_3_4_8 0
2e_0_3_4_8 0
p_3_4_8 0
e_0_3_4_8 2000000000
y_0_3_0_9 0
2e_0_3_0_9 0
x_0_2_9_0 0
p_4_13_0 0
p_3_0_9 0
e_0_3_0_9 2000000000
y_0_3_1_9 0
2e_0_3_1_9 0
p_3_1_9 0
e_0_3_1_9 2000000000
y_0_3_2_9 0
2e_0_3_2_9 0
p_3_2_9 0
e_0_3_2_9 2000000000
y_0_3_3_9 0
2e_0_3_3_9 0
p_3_3_9 0
e_0_3_3_9 2000000000
y_0_3_4_9 0
2e_0_3_4_9 0
p_3_4_9 0
e_0_3_4_9 2000000000
y_0_3_0_10 0
2e_0_3_0_10 0
x_0_2_10_0 0
p_4_14_0 0
p_3_0_10 0
e_0_3_0_10 2000000000
y_0_3_1_10 0
2e_0_3_1_10 0
p_3_1_10 0
e_0_3_1_10 2000000000
y_0_3_2_10 0
2e_0_3_2_10 0
p_3_2_10 0
e_0_3_2_10 2000000000
y_0_3_3_10 0
2e_0_3_3_10 0
p_3_3_10 0
e_0_3_3_10 2000000000
y_0_3_4_10 0
2e_0_3_4_10 0
p_3_4_10 0
e_0_3_4_10 2000000000
y_0_3_0_11 0
2e_0_3_0_11 0
x_0_2_11_0 0
p_4_15_0 0
p_3_0_11 0
e_0_3_0_11 2000000000
y_0_3_1_11 0
2e_0_3_1_11 0
p_3_1_11 0
e_0_3_1_11 2000000000
y_0_3_2_11 0
2e_0_3_2_11 0
p_3_2_11 0
e_0_3_2_11 2000000000
y_0_3_3_11 0
2e_0_3_3_11 0
p_3_3_11 0
e_0_3_3_11 2000000000
y_0_3_4_11 0
2e_0_3_4_11 0
p_3_4_11 0
e_0_3_4_11 2000000000
y_0_3_0_12 0
2e_0_3_0_12 0
x_0_2_12_0 0
p_4_0_0 0
p_3_0_12 0
e_0_3_0_12 2000000000
y_0_3_1_12 0
2e_0_3_1_12 0
p_3_1_12 0
e_0_3_1_12 2000000000
y_0_3_2_12 0
2e_0_3_2_12 0
p_3_2_12 0
e_0_3_2_12 2000000000
y_0_3_3_12 0
2e_0_3_3_12 0
p_3_3_12 0
e_0_3_3_12 2000000000
y_0_3_4_12 0
2e_0_3_4_12 0
p_3_4_12 0
e_0_3_4_12 2000000000
y_0_3_0_13 0
2e_0_3_0_13 0
x_0_2_13_0 0
p_4_1_0 0
p_3_0_13 0
e_0_3_0_13 2000000000
y_0_3_1_13 0
2e_0_3_1_13 0
p_3_1_13 0
e_0_3_1_13 2000000000
y_0_3_2_13 0
2e_0_3_2_13 0
p_3_2_13 0
e_0_3_2_13 2000000000
y_0_3_3_13 0
2e_0_3_3_13 0
p_3_3_13 0
e_0_3_3_13 2000000000
y_0_3_4_13 0
2e_0_3_4_13 0
p_3_4_13 0
e_0_3_4_13 2000000000
y_0_3_0_14 0
2e_0_3_0_14 0
x_0_2_14_0 0
p_4_2_0 0
p_3_0_14 0
e_0_3_0_14 2000000000
y_0_3_1_14 0
2e_0_3_1_14 0
p_3_1_14 0
e_0_3_1_14 2000000000
y_0_3_2_14 0
2e_0_3_2_14 0
p_3_2_14 0
e_0_3_2_14 2000000000
y_0_3_3_14 0
2e_0_3_3_14 0
p_3_3_14 0
e_0_3_3_14 2000000000
y_0_3_4_14 0
2e_0_3_4_14 0
p_3_4_14 0
e_0_3_4_14 2000000000
y_0_3_0_15 0
2e_0_3_0_15 0
x_0_2_15_0 0
p_4_3_0 0
p_3_0_15 0
e_0_3_0_15 2000000000
y_0_3_1_15 0
2e_0_3_1_15 0
p_3_1_15 0
e_0_3_1_15 2000000000
y_0_3_2_15 0
2e_0_3_2_15 0
p_3_2_15 0
e_0_3_2_15 2000000000
y_0_3_3_15 0
2e_0_3_3_15 0
p_3_3_15 0
e_0_3_3_15 2000000000
y_0_3_4_15 0
2e_0_3_4_15 0
p_3_4_15 0
e_0_3_4_15 2000000000
y_0_4_0_0 0
2e_0_4_0_0 0
e_0_4_0_0 2000000000
y_0_4_1_0 0
2e_0_4_1_0 0
e_0_4_1_0 2000000000
y_0_4_2_0 0
2e_0_4_2_0 0
e_0_4_2_0 2000000000
y_0_4_3_0 0
2e_0_4_3_0 0
e_0_4_3_0 2000000000
y_0_4_4_0 0
2e_0_4_4_0 0
e_0_4_4_0 2000000000
y_0_4_0_1 0
2e_0_4_0_1 0
p_0_5_0 0
p_4_0_1 0
e_0_4_0_1 2000000000
y_0_4_1_1 0
2e_0_4_1_1 0
p_4_1_1 0
e_0_4_1_1 2000000000
y_0_4_2_1 0
2e_0_4_2_1 0
p_4_2_1 0
e_0_4_2_1 2000000000
y_0_4_3_1 0
2e_0_4_3_1 0
p_4_3_1 0
e_0_4_3_1 2000000000
y_0_4_4_1 0
2e_0_4_4_1 0
p_4_4_1 0
e_0_4_4_1 2000000000
y_0_4_0_2 0
2e_0_4_0_2 0
p_0_6_0 0
p_4_0_2 0
e_0_4_0_2 2000000000
y_0_4_1_2 0
2e_0_4_1_2 0
p_4_1_2 0
e_0_4_1_2 2000000000
y_0_4_2_2 0
2e_0_4_2_2 0
p_4_2_2 0
e_0_4_2_2 2000000000
y_0_4_3_2 0
2e_0_4_3_2 0
p_4_3_2 0
e_0_4_3_2 2000000000
y_0_4_4_2 0
2e_0_4_4_2 0
p_4_4_2 0
e_0_4_4_2 2000000000
y_0_4_0_3 0
2e_0_4_0_3 0
p_0_7_0 0
p_4_0_3 0
e_0_4_0_3 2000000000
y_0_4_1_3 0
2e_0_4_1_3 0
p_4_1_3 0
e_0_4_1_3 2000000000
y_0_4_2_3 0
2e_0_4_2_3 0
p_4_2_3 0
e_0_4_2_3 2000000000
y_0_4_3_3 0
2e_0_4_3_3 0
p_4_3_3 0
e_0_4_3_3 2000000000
y_0_4_4_3 0
2e_0_4_4_3 0
p_4_4_3 0
e_0_4_4_3 2000000000
y_0_4_0_4 0
2e_0_4_0_4 0
p_0_8_0 0
p_4_0_4 0
e_0_4_0_4 2000000000
y_0_4_1_4 0
2e_0_4_1_4 0
p_4_1_4 0
e_0_4_1_4 2000000000
y_0_4_2_4 0
2e_0_4_2_4 0
p_4_2_4 0
e_0_4_2_4 2000000000
y_0_4_3_4 0
2e_0_4_3_4 0
p_4_3_4 0
e_0_4_3_4 2000000000
y_0_4_4_4 0
2e_0_4_4_4 0
p_4_4_4 0
e_0_4_4_4 2000000000
y_0_4_0_5 0
2e_0_4_0_5 0
x_0_3_5_0 0
p_0_9_0 0
p_4_0_5 0
e_0_4_0_5 2000000000
y_0_4_1_5 0
2e_0_4_1_5 0
p_4_1_5 0
e_0_4_1_5 2000000000
y_0_4_2_5 0
2e_0_4_2_5 0
p_4_2_5 0
e_0_4_2_5 2000000000
y_0_4_3_5 0
2e_0_4_3_5 0
p_4_3_5 0
e_0_4_3_5 2000000000
y_0_4_4_5 0
2e_0_4_4_5 0
p_4_4_5 0
e_0_4_4_5 2000000000
y_0_4_0_6 0
2e_0_4_0_6 0
x_0_3_6_0 0
p_0_10_0 0
p_4_0_6 0
e_0_4_0_6 2000000000
y_0_4_1_6 0
2e_0_4_1_6 0
p_4_1_6 0
e_0_4_1_6 2000000000
y_0_4_2_6 0
2e_0_4_2_6 0
p_4_2_6 0
e_0_4_2_6 2000000000
y_0_4_3_6 0
2e_0_4_3_6 0
p_4_3_6 0
e_0_4_3_6 2000000000
y_0_4_4_6 0
2e_0_4_4_6 0
p_4_4_6 0
e_0_4_4_6 2000000000
y_0_4_0_7 0
2e_0_4_0_7 0
x_0_3_7_0 0
p_0_11_0 0
p_4_0_7 0
e_0_4_0_7 2000000000
y_0_4_1_7 0
2e_0_4_1_7 0
p_4_1_7 0
e_0_4_1_7 2000000000
y_0_4_2_7 0
2e_0_4_2_7 0
p_4_2_7 0
e_0_4_2_7 2000000000
y_0_4_3_7 0
2e_0_4_3_7 0
p_4_3_7 0
e_0_4_3_7 2000000000
y_0_4_4_7 0
2e_0_4_4_7 0
p_4_4_7 0
e_0_4_4_7 2000000000
y_0_4_0_8 0
2e_0_4_0_8 0
x_0_3_8_0 0
p_0_12_0 0
p_4_0_8 0
e_0_4_0_8 2000000000
y_0_4_1_8 0
2e_0_4_1_8 0
p_4_1_8 0
e_0_4_1_8 2000000000
y_0_4_2_8 0
2e_0_4_2_8 0
p_4_2_8 0
e_0_4_2_8 2000000000
y_0_4_3_8 0
2e_0_4_3_8 0
p_4_3_8 0
e_0_4_3_8 2000000000
y_0_4_4_8 0
2e_0_4_4_8 0
p_4_4_8 0
e_0_4_4_8 2000000000
y_0_4_0_9 0
2e_0_4_0_9 0
x_0_3_9_0 0
p_0_13_0 0
p_4_0_9 0
e_0_4_0_9 2000000000
y_0_4_1_9 0
2e_0_4_1_9 0
p_4_1_9 0
e_0_4_1_9 2000000000
y_0_4_2_9 0
2e_0_4_2_9 0
p_4_2_9 0
e_0_4_2_9 2000000000
y_0_4_3_9 0
2e_0_4_3_9 0
p_4_3_9 0
e_0_4_3_9 2000000000
y_0_4_4_9 0
2e_0_4_4_9 0
p_4_4_9 0
e_0_4_4_9 2000000000
y_0_4_0_10 0
2e_0_4_0_10 0
x_0_3_10_0 0
p_0_14_0 0
p_4_0_10 0
e_0_4_0_10 2000000000
y_0_4_1_10 0
2e_0_4_1_10 0
p_4_1_10 0
e_0_4_1_10 2000000000
y_0_4_2_10 0
2e_0_4_2_10 0
p_4_2_10 0
e_0_4_2_10 2000000000
y_0_4_3_10 0
2e_0_4_3_10 0
p_4_3_10 0
e_0_4_3_10 2000000000
y_0_4_4_10 0
2e_0_4_4_10 0
p_4_4_10 0
e_0_4_4_10 2000000000
y_0_4_0_11 0
2e_0_4_0_11 0
x_0_3_11_0 0
p_0_15_0 0
p_4_0_11 0
e_0_4_0_11 2000000000
y_0_4_1_11 0
2e_0_4_1_11 0
p_4_1_11 0
e_0_4_1_11 2000000000
y_0_4_2_11 0
2e_0_4_2_11 0
p_4_2_11 0
e_0_4_2_11 2000000000
y_0_4_3_11 0
2e_0_4_3_11 0
p_4_3_11 0
e_0_4_3_11 2000000000
y_0_4_4_11 0
2e_0_4_4_11 0
p_4_4_11 0
e_0_4_4_11 2000000000
y_0_4_0_12 0
2e_0_4_0_12 0
x_0_3_12_0 0
p_4_0_12 0
e_0_4_0_12 2000000000
y_0_4_1_12 0
2e_0_4_1_12 0
p_4_1_12 0
e_0_4_1_12 2000000000
y_0_4_2_12 0
2e_0_4_2_12 0
p_4_2_12 0
e_0_4_2_12 2000000000
y_0_4_3_12 0
2e_0_4_3_12 0
p_4_3_12 0
e_0_4_3_12 2000000000
y_0_4_4_12 0
2e_0_4_4_12 0
p_4_4_12 0
e_0_4_4_12 2000000000
y_0_4_0_13 0
2e_0_4_0_13 0
x_0_3_13_0 0
p_4_0_13 0
e_0_4_0_13 2000000000
y_0_4_1_13 0
2e_0_4_1_13 0
p_4_1_13 0
e_0_4_1_13 2000000000
y_0_4_2_13 0
2e_0_4_2_13 0
p_4_2_13 0
e_0_4_2_13 2000000000
y_0_4_3_13 0
2e_0_4_3_13 0
p_4_3_13 0
e_0_4_3_13 2000000000
y_0_4_4_13 0
2e_0_4_4_13 0
p_4_4_13 0
e_0_4_4_13 2000000000
y_0_4_0_14 0
2e_0_4_0_14 0
x_0_3_14_0 0
p_4_0_14 0
e_0_4_0_14 2000000000
y_0_4_1_14 0
2e_0_4_1_14 0
p_4_1_14 0
e_0_4_1_14 2000000000
y_0_4_2_14 0
2e_0_4_2_14 0
p_4_2_14 0
e_0_4_2_14 2000000000
y_0_4_3_14 0
2e_0_4_3_14 0
p_4_3_14 0
e_0_4_3_14 2000000000
y_0_4_4_14 0
2e_0_4_4_14 0
p_4_4_14 0
e_0_4_4_14 2000000000
y_0_4_0_15 0
2e_0_4_0_15 0
x_0_3_15_0 0
p_4_0_15 0
e_0_4_0_15 2000000000
y_0_4_1_15 0
2e_0_4_1_15 0
p_4_1_15 0
e_0_4_1_15 2000000000
y_0_4_2_15 0
2e_0_4_2_15 0
p_4_2_15 0
e_0_4_2_15 2000000000
y_0_4_3_15 0
2e_0_4_3_15 0
p_4_3_15 0
e_0_4_3_15 2000000000
y_0_4_4_15 0
2e_0_4_4_15 0
p_4_4_15 0
e_0_4_4_15 2000000000
z_0_0_0_0 0
z_0_1_0_0 0
z_0_2_0_0 0
z_0_3_0_0 0
z_0_4_0_0 0
z_0_0_0_1 0
z_0_1_0_1 0
z_0_2_0_1 0
z_0_3_0_1 0
z_0_4_0_1 0
z_0_0_0_2 0
z_0_1_0_2 0
z_0_2_0_2 0
z_0_3_0_2 0
z_0_4_0_2 0
z_0_0_0_3 0
z_0_1_0_3 0
z_0_2_0_3 0
z_0_3_0_3 0
z_0_4_0_3 0
z_0_0_0_4 0
z_0_1_0_4 0
z_0_2_0_4 0
z_0_3_0_4 0
z_0_4_0_4 0
z_0_0_0_5 0
z_0_1_0_5 0
z_0_2_0_5 0
z_0_3_0_5 0
z_0_4_0_5 0
z_0_0_0_6 0
z_0_1_0_6 0
z_0_2_0_6 0
z_0_3_0_6 0
z_0_4_0_6 0
z_0_0_0_7 0
z_0_1_0_7 0
z_0_2_0_7 0
z_0_3_0_7 0
z_0_4_0_7 0
z_0_0_0_8 0
z_0_1_0_8 0
z_0_2_0_8 0
z_0_3_0_8 0
z_0_4_0_8 0
z_0_0_0_9 0
z_0_1_0_9 0
z_0_2_0_9 0
z_0_3_0_9 0
z_0_4_0_9 0
z_0_0_0_10 0
z_0_1_0_10 0
z_0_2_0_10 0
z_0_3_0_10 0
z_0_4_0_10 0
z_0_0_0_11 0
z_0_1_0_11 0
z_0_2_0_11 0
z_0_3_0_11 0
z_0_4_0_11 0
z_0_0_0_12 0
z_0_1_0_12 0
z_0_2_0_12 0
z_0_3_0_12 0
z_0_4_0_12 0
z_0_0_0_13 0
z_0_1_0_13 0
z_0_2_0_13 0
z_0_3_0_13 0
z_0_4_0_13 0
z_0_0_0_14 0
z_0_1_0_14 0
z_0_2_0_14 0
z_0_3_0_14 0
z_0_4_0_14 0
z_0_0_0_15 0
z_0_1_0_15 0
z_0_2_0_15 0
z_0_3_0_15 0
z_0_4_0_15 0
z_0_0_1_0 0
z_0_1_1_0 0
z_0_2_1_0 0
z_0_3_1_0 0
z_0_4_1_0 0
z_0_0_1_1 0
z_0_1_1_1 0
z_0_2_1_1 0
z_0_3_1_1 0
z_0_4_1_1 0
z_0_0_1_2 0
z_0_1_1_2 0
z_0_2_1_2 0
z_0_3_1_2 0
z_0_4_1_2 0
z_0_0_1_3 0
z_0_1_1_3 0
z_0_2_1_3 0
z_0_3_1_3 0
z_0_4_1_3 0
z_0_0_1_4 0
z_0_1_1_4 0
z_0_2_1_4 0
z_0_3_1_4 0
z_0_4_1_4 0
z_0_0_1_5 0
z_0_1_1_5 0
z_0_2_1_5 0
z_0_3_1_5 0
z_0_4_1_5 0
z_0_0_1_6 0
z_0_1_1_6 0
z_0_2_1_6 0
z_0_3_1_6 0
z_0_4_1_6 0
z_0_0_1_7 0
z_0_1_1_7 0
z_0_2_1_7 0
z_0_3_1_7 0
z_0_4_1_7 0
z_0_0_1_8 0
z_0_1_1_8 0
z_0_2_1_8 0
z_0_3_1_8 0
z_0_4_1_8 0
z_0_0_1_9 0
z_0_1_1_9 0
z_0_2_1_9 0
z_0_3_1_9 0
z_0_4_1_9 0
z_0_0_1_10 0
z_0_1_1_10 0
z_0_2_1_10 0
z_0_3_1_10 0
z_0_4_1_10 0
z_0_0_1_11 0
z_0_1_1_11 0
z_0_2_1_11 0
z_0_3_1_11 0
z_0_4_1_11 0
z_0_0_1_12 0
z_0_1_1_12 0
z_0_2_1_12 0
z_0_3_1_12 0
z_0_4_1_12 0
z_0_0_1_13 0
z_0_1_1_13 0
z_0_2_1_13 0
z_0_3_1_13 0
z_0_4_1_13 0
z_0_0_1_14 0
z_0_1_1_14 0
z_0_2_1_14 0
z_0_3_1_14 0
z_0_4_1_14 0
z_0_0_1_15 0
z_0_1_1_15 0
z_0_2_1_15 0
z_0_3_1_15 0
z_0_4_1_15 0
z_0_0_2_0 0
z_0_1_2_0 0
z_0_2_2_0 0
z_0_3_2_0 0
z_0_4_2_0 0
z_0_0_2_1 0
z_0_1_2_1 0
z_0_2_2_1 0
z_0_3_2_1 0
z_0_4_2_1 0
z_0_0_2_2 0
z_0_1_2_2 0
z_0_2_2_2 0
z_0_3_2_2 0
z_0_4_2_2 0
z_0_0_2_3 0
z_0_1_2_3 0
z_0_2_2_3 0
z_0_3_2_3 0
z_0_4_2_3 0
z_0_0_2_4 0
z_0_1_2_4 0
z_0_2_2_4 0
z_0_3_2_4 0
z_0_4_2_4 0
z_0_0_2_5 0
z_0_1_2_5 0
z_0_2_2_5 0
z_0_3_2_5 0
z_0_4_2_5 0
z_0_0_2_6 0
z_0_1_2_6 0
z_0_2_2_6 0
z_0_3_2_6 0
z_0_4_2_6 0
z_0_0_2_7 0
z_0_1_2_7 0
z_0_2_2_7 0
z_0_3_2_7 0
z_0_4_2_7 0
z_0_0_2_8 0
z_0_1_2_8 0
z_0_2_2_8 0
z_0_3_2_8 0
z_0_4_2_8 0
z_0_0_2_9 0
z_0_1_2_9 0
z_0_2_2_9 0
z_0_3_2_9 0
z_0_4_2_9 0
z_0_0_2_10 0
z_0_1_2_10 0
z_0_2_2_10 0
z_0_3_2_10 0
z_0_4_2_10 0
z_0_0_2_11 0
z_0_1_2_11 0
z_0_2_2_11 0
z_0_3_2_11 0
z_0_4_2_11 0
z_0_0_2_12 0
z_0_1_2_12 0
z_0_2_2_12 0
z_0_3_2_12 0
z_0_4_2_12 0
z_0_0_2_13 0
z_0_1_2_13 0
z_0_2_2_13 0
z_0_3_2_13 0
z_0_4_2_13 0
z_0_0_2_14 0
z_0_1_2_14 0
z_0_2_2_14 0
z_0_3_2_14 0
z_0_4_2_14 0
z_0_0_2_15 0
z_0_1_2_15 0
z_0_2_2_15 0
z_0_3_2_15 0
z_0_4_2_15 0
z_0_0_3_0 0
z_0_1_3_0 0
z_0_2_3_0 0
z_0_3_3_0 0
z_0_4_3_0 0
z_0_0_3_1 0
z_0_1_3_1 0
z_0_2_3_1 0
z_0_3_3_1 0
z_0_4_3_1 0
z_0_0_3_2 0
z_0_1_3_2 0
z_0_2_3_2 0
z_0_3_3_2 0
z_0_4_3_2 0
z_0_0_3_3 0
z_0_1_3_3 0
z_0_2_3_3 0
z_0_3_3_3 0
z_0_4_3_3 0
z_0_0_3_4 0
z_0_1_3_4 0
z_0_2_3_4 0
z_0_3_3_4 0
z_0_4_3_4 0
z_0_0_3_5 0
z_0_1_3_5 0
z_0_2_3_5 0
z_0_3_3_5 0
z_0_4_3_5 0
z_0_0_3_6 0
z_0_1_3_6 0
z_0_2_3_6 0
z_0_3_3_6 0
z_0_4_3_6 0
z_0_0_3_7 0
z_0_1_3_7 0
z_0_2_3_7 0
z_0_3_3_7 0
z_0_4_3_7 0
z_0_0_3_8 0
z_0_1_3_8 0
z_0_2_3_8 0
z_0_3_3_8 0
z_0_4_3_8 0
z_0_0_3_9 0
z_0_1_3_9 0
z_0_2_3_9 0
z_0_3_3_9 0
z_0_4_3_9 0
z_0_0_3_10 0
z_0_1_3_10 0
z_0_2_3_10 0
z_0_3_3_10 0
z_0_4_3_10 0
z_0_0_3_11 0
z_0_1_3_11 0
z_0_2_3_11 0
z_0_3_3_11 0
z_0_4_3_11 0
z_0_0_3_12 0
z_0_1_3_12 0
z_0_2_3_12 0
z_0_3_3_12 0
z_0_4_3_12 0
z_0_0_3_13 0
z_0_1_3_13 0
z_0_2_3_13 0
z_0_3_3_13 0
z_0_4_3_13 0
z_0_0_3_14 0
z_0_1_3_14 0
z_0_2_3_14 0
z_0_3_3_14 0
z_0_4_3_14 0
z_0_0_3_15 0
z_0_1_3_15 0
z_0_2_3_15 0
z_0_3_3_15 0
z_0_4_3_15 0
z_0_0_4_0 0
z_0_1_4_0 0
z_0_2_4_0 0
z_0_3_4_0 0
z_0_4_4_0 0
z_0_0_4_1 0
z_0_1_4_1 0
z_0_2_4_1 0
z_0_3_4_1 0
z_0_4_4_1 0
z_0_0_4_2 0
z_0_1_4_2 0
z_0_2_4_2 0
z_0_3_4_2 0
z_0_4_4_2 0
z_0_0_4_3 0
z_0_1_4_3 0
z_0_2_4_3 0
z_0_3_4_3 0
z_0_4_4_3 0
z_0_0_4_4 0
z_0_1_4_4 0
z_0_2_4_4 0
z_0_3_4_4 0
z_0_4_4_4 0
z_0_0_4_5 0
z_0_1_4_5 0
z_0_2_4_5 0
z_0_3_4_5 0
z_0_4_4_5 0
z_0_0_4_6 0
z_0_1_4_6 0
z_0_2_4_6 0
z_0_3_4_6 0
z_0_4_4_6 0
z_0_0_4_7 0
z_0_1_4_7 0
z_0_2_4_7 0
z_0_3_4_7 0
z_0_4_4_7 0
z_0_0_4_8 0
z_0_1_4_8 0
z_0_2_4_8 0
z_0_3_4_8 0
z_0_4_4_8 0
z_0_0_4_9 0
z_0_1_4_9 0
z_0_2_4_9 0
z_0_3_4_9 0
z_0_4_4_9 0
z_0_0_4_10 0
z_0_1_4_10 0
z_0_2_4_10 0
z_0_3_4_10 0
z_0_4_4_10 0
z_0_0_4_11 0
z_0_1_4_11 0
z_0_2_4_11 0
z_0_3_4_11 0
z_0_4_4_11 0
z_0_0_4_12 0
z_0_1_4_12 0
z_0_2_4_12 0
z_0_3_4_12 0
z_0_4_4_12 0
z_0_0_4_13 0
z_0_1_4_13 0
z_0_2_4_13 0
z_0_3_4_13 0
z_0_4_4_13 0
z_0_0_4_14 0
z_0_1_4_14 0
z_0_2_4_14 0
z_0_3_4_14 0
z_0_4_4_14 0
z_0_0_4_15 0
z_0_1_4_15 0
z_0_2_4_15 0
z_0_3_4_15 0
z_0_4_4_15 0
f_0_0_0 0
f_0_1_0 0
f_0_2_0 0
f_0_3_0 0
f_0_4_0 0
f_0_0_1 0
f_0_1_1 0
f_0_2_1 0
f_0_3_1 0
f_0_4_1 0
f_0_0_2 0
f_0_1_2 0
f_0_2_2 0
f_0_3_2 0
f_0_4_2 0
f_0_0_3 0
f_0_1_3 0
f_0_2_3 0
f_0_3_3 0
f_0_4_3 0
f_0_0_4 0
f_0_1_4 0
f_0_2_4 0
f_0_3_4 0
f_0_4_4 0
f_0_0_5 0
f_0_1_5 0
f_0_2_5 0
f_0_3_5 0
f_0_4_5 0
f_0_0_6 0
f_0_1_6 0
f_0_2_6 0
f_0_3_6 0
f_0_4_6 0
f_0_0_7 0
f_0_1_7 0
f_0_2_7 0
f_0_3_7 0
f_0_4_7 0
f_0_0_8 0
f_0_1_8 0
f_0_2_8 0
f_0_3_8 0
f_0_4_8 0
f_0_0_9 0
f_0_1_9 0
f_0_2_9 0
f_0_3_9 0
f_0_4_9 0
f_0_0_10 0
f_0_1_10 0
f_0_2_10 0
f_0_3_10 0
f_0_4_10 0
f_0_0_11 0
f_0_1_11 0
f_0_2_11 0
f_0_3_11 0
f_0_4_11 0
f_0_0_12 0
f_0_1_12 0
f_0_2_12 0
f_0_3_12 0
f_0_4_12 0
f_0_0_13 0
f_0_1_13 0
f_0_2_13 0
f_0_3_13 0
f_0_4_13 0
f_0_0_14 0
f_0_1_14 0
f_0_2_14 0
f_0_3_14 0
f_0_4_14 0
f_0_0_15 0
f_0_1_15 0
f_0_2_15 0
f_0_3_15 0
f_0_4_15 0
